Rodando pra 1h
Optimize a model with 360095 rows, 539228 columns and 3232485 nonzeros
Coefficient statistics:
  Matrix range    [1e+00, 1e+06]
  Objective range [2e-01, 2e-01]
  Bounds range    [1e+00, 1e+06]
  RHS range       [1e+00, 6e+02]
Presolve removed 0 rows and 0 columns (presolve time = 6s) ...
Presolve time: 7.10s
Presolved: 360095 rows, 539228 columns, 3232485 nonzeros
Variable types: 359464 continuous, 179764 integer (179764 binary)
Optimize a model with 360095 rows, 539228 columns and 3232485 nonzeros
Coefficient statistics:
  Matrix range    [1e+00, 1e+06]
  Objective range [2e-01, 2e-01]
  Bounds range    [1e+00, 1e+06]
  RHS range       [1e+00, 6e+02]
Presolved: 360095 rows, 539228 columns, 3232485 nonzeros


Root simplex log...

Iteration    Objective       Primal Inf.    Dual Inf.      Time
       0    0.0000000e+00   1.810585e+03   0.000000e+00     24s
    1255    0.0000000e+00   0.000000e+00   0.000000e+00     26s

Root relaxation: objective 0.000000e+00, 1255 iterations, 3.01 seconds
Total elapsed time = 240.27s
Total elapsed time = 250.86s

    Nodes    |    Current Node    |     Objective Bounds      |     Work
 Expl Unexpl |  Obj  Depth IntInf | Incumbent    BestBd   Gap | It/Node Time

     0     0    0.00000    0   22          -    0.00000      -     -  251s
     0     0    0.00000    0  141          -    0.00000      -     - 1338s
     0     0    0.00000    0  238          -    0.00000      -     - 2120s
     0     0    0.00000    0  237          -    0.00000      -     - 2131s
     0     0    0.00000    0  512          -    0.00000      -     - 3600s

Cutting planes:
  MIR: 11
  Flow cover: 188

Explored 0 nodes (449207 simplex iterations) in 3600.23 seconds
Thread count was 1 (of 4 available processors)

Time limit reached
Best objective -, best bound 0.000000000000e+00, gap -
Tempo: 3592.86 segundos

Error code = 10004
Var::get
